%nprocshared=2
%mem=500MB
%chk=mon2.chk
#p td=(nstates=2) cam-b3lyp geom=connectivity svp density(transition=1) Iop(9/40=5) nosymm

Title

0 1
 C                  2.00000000   -4.37986222   -2.69807810
 C                  2.00000000   -3.29650093   -3.52851490
 H                  2.00000000   -3.37163083   -4.61598409
 C                  2.00000000   -2.06425093   -2.81741451
 H                  2.00000000   -1.08559746   -3.29875404
 C                  2.00000000   -2.22720839   -1.45264591
 S                  2.00000000   -3.91462478   -1.04293299
 C                  2.00000000   -1.20714608   -0.41582165
 C                  2.00000000   -1.36628840    0.94854692
 H                  2.00000000   -2.34331202    1.43283547
 C                  2.00000000   -0.13832153    1.65751392
 H                  2.00000000   -0.06921591    2.74578547
 C                  2.00000000    0.96368515    0.83750835
 S                  2.00000000    0.47909603   -0.82981867
 C                  2.00000000    2.37163246    1.20249609
 C                  2.00000000    3.47207800    0.37898649
 H                  2.00000000    3.39960353   -0.70922204
 C                  2.00000000    4.70403400    1.09059610
 H                  2.00000000    5.68337490    0.61192591
 C                  2.00000000    4.52653529    2.44403290
 H                  2.00000000    5.28823770    3.22149762
 S                  2.00000000    2.86051885    2.86869801
 H                  2.00000000   -5.43401763   -2.96899938

 1 2 2.0 7 1.0 23 1.0
 2 3 1.0 4 1.5
 3
 4 5 1.0 6 2.0
 5
 6 7 1.0 8 1.0
 7
 8 9 2.0 14 1.0
 9 10 1.0 11 1.5
 10
 11 12 1.0 13 2.0
 12
 13 14 1.0 15 1.0
 14
 15 16 2.0 22 1.0
 16 17 1.0 18 1.5
 17
 18 19 1.0 20 2.0
 19
 20 21 1.0 22 1.0
 21
 22
 23

