%nprocshared=2
%mem=500MB
%chk=temp.chk
#p td=(nstates=1) cam-b3lyp nosymm density=transition=1 iop(9/40=5) svp

Title

0 1
 C                  0.00000000    5.14211100    0.13077303
 C                  0.00000000    4.61911100    1.39163303
 H                  0.00000000    5.22791000    2.29584403
 C                  0.00000000    3.19640100    1.39192703
 H                  0.00000000    2.58953200    2.29810603
 C                  0.00000000    2.65514200    0.12852403
 S                  0.00000000    3.91163100   -1.07000597
 C                  0.00000000    1.25333000   -0.25936097
 C                  0.00000000    0.70896700   -1.52050997
 H                  0.00000000    1.31295000   -2.42842797
 C                  0.00000000   -0.70896700   -1.52050997
 H                  0.00000000   -1.31295000   -2.42842797
 C                  0.00000000   -1.25333000   -0.25936097
 S                  0.00000000    0.00000000    0.94229203
 C                  0.00000000   -2.65514200    0.12852403
 C                  0.00000000   -3.19640100    1.39192703
 H                  0.00000000   -2.58953200    2.29810603
 C                  0.00000000   -4.61911100    1.39163303
 H                  0.00000000   -5.22791000    2.29584403
 C                  0.00000000   -5.14211100    0.13077303
 H                  0.00000000   -6.19049700   -0.16167997
 S                  0.00000000   -3.91163100   -1.07000597
 H                 -0.00000000    6.19049700   -0.16167997

